(assert (forall ((pkt_0_6_8_0  Int  )(pkt_1_7_9_0  Int  )(state_group_0_state_0_8_a_0  Int  )(state_group_1_state_0_9_b_0  Int  )(state_group_2_state_0_a_c_0  Int  )) (let ((_n0 pkt_0_6_8_0 ))
(let ((_n1 state_group_0_state_0_8_a_0 ))
(let ((_n2 (+   _n1   _n0 ) ))
(let ((_n3 false ))
(let ((_n4 (=   _n0   (ite  _n3  1 0) ) ))
(let ((_n5 (not  _n4 ) ))
(let ((_n6 (ite (=  _n0  0)  (ite  _n3  1 0)   _n0  ) ))
(let ((_n7 (+   _n1   _n6 ) ))
(let ((_n8 (ite (=  (ite  _n5  1 0)  1)  _n7   _n1  ) ))
(let ((_n9 (=   _n8   _n2 ) ))
(let ((_n11 30 ))
(let ((_n12 pkt_1_7_9_0 ))
(let ((_n13 (<   _n12   _n11 ) ))
(let ((_n14 state_group_1_state_0_9_b_0 ))
(let ((_n15 (+   _n14   _n12 ) ))
(let ((_n16 (ite  _n13   _n15   _n14  ) ))
(let ((_n17 (<   (ite  _n3  1 0)   (ite  _n13  1 0) ) ))
(let ((_n18 (=   _n12   (ite  _n3  1 0) ) ))
(let ((_n19 (not  _n18 ) ))
(let ((_n20 (ite (=  _n12  0)  (ite  _n3  1 0)   _n12  ) ))
(let ((_n21 (ite (=  (ite  _n19  1 0)  1)  _n20   (ite  _n3  1 0)  ) ))
(let ((_n22 (ite  _n17   _n21   (ite  _n3  1 0)  ) ))
(let ((_n23 (+   _n14   _n22 ) ))
(let ((_n24 (ite (=  (ite  _n17  1 0)  1)  _n23   _n14  ) ))
(let ((_n25 (=   _n24   _n16 ) ))
(let ((_n27 state_group_2_state_0_a_c_0 ))
(let ((_n28 true ))
(let ((_n29 (+   _n27   (ite  _n28  1 0) ) ))
(let ((_n30 (ite  _n13   _n29   _n27  ) ))
(let ((_n31 (not  _n13 ) ))
(let ((_n32 (ite  _n13   (ite  _n3  1 0)   _n21  ) ))
(let ((_n33 (ite (=  (ite  _n31  1 0)  1)  _n32   (ite  _n3  1 0)  ) ))
(let ((_n34 (=   _n33   (ite  _n3  1 0) ) ))
(let ((_n35 (+   _n27   (ite  _n34  1 0) ) ))
(let ((_n36 (ite (=  (ite  _n34  1 0)  1)  _n35   _n27  ) ))
(let ((_n37 (=   _n36   _n30 ) ))
(let ((_n39 (-  _n0 )))
(let ((_n40 337 ))
(let ((_n41 (+   _n40   _n39 ) ))
(let ((_n42 (-  _n41 )))
(let ((_n43 (+   _n40   _n42 ) ))
(let ((_n44 (ite (=  _n42  (- 337))  (ite  _n3  1 0)   _n43  ) ))
(let ((_n45 (=   _n44   _n0 ) ))
(let ((_n47 (ite (=  _n21  0)  (ite  _n3  1 0)   _n21  ) ))
(let ((_n48 (ite (=  _n33  0)  _n47   (ite  _n3  1 0)  ) ))
(let ((_n49 (ite (=  _n33  0)  _n48   _n33  ) ))
(let ((_n50 (=   _n49   _n12 ) ))
(implies  (and (and (>= state_group_2_state_0_a_c_0 0) (< state_group_2_state_0_a_c_0 1024 ))  (and (and (>= state_group_1_state_0_9_b_0 0) (< state_group_1_state_0_9_b_0 1024 ))  (and (and (>= state_group_0_state_0_8_a_0 0) (< state_group_0_state_0_8_a_0 1024 ))  (and (and (>= pkt_1_7_9_0 0) (< pkt_1_7_9_0 1024 ))  (and (>= pkt_0_6_8_0 0) (< pkt_0_6_8_0 1024 )) ) ) ) )   (and  _n9  _n25  _n37  _n45  _n50 )  ))))))))))))))))))))))))))))))))))))))))))))))))))
(check-sat)
(get-model)
(exit)